(set-logic QF_S)
(declare-fun var0 () String)
(assert (RegexIn var0 (RegexConcat (RegexStar (RegexUnion (Str2Reg "000") (Str2Reg "111"))) (RegexConcat (RegexPlus (RegexStar (Str2Reg "22"))) (RegexConcat (RegexStar (RegexUnion (Str2Reg "33") (Str2Reg "44"))) (RegexConcat (RegexUnion (RegexPlus (Str2Reg "5")) (RegexPlus (Str2Reg "666"))) (RegexConcat (RegexUnion (RegexPlus (Str2Reg "7")) (RegexPlus (Str2Reg "888"))) (RegexConcat (RegexPlus (RegexStar (Str2Reg "999"))) (RegexConcat (RegexUnion (RegexUnion (Str2Reg "aa") (Str2Reg "b")) (RegexUnion (Str2Reg "cc") (Str2Reg "ddd"))) (RegexConcat (RegexUnion (RegexPlus (Str2Reg "eee")) (RegexPlus (Str2Reg "ff"))) (RegexConcat (RegexUnion (RegexUnion (Str2Reg "ggg") (Str2Reg "h")) (RegexUnion (Str2Reg "iii") (Str2Reg "jj"))) (RegexPlus (RegexPlus (Str2Reg "k"))))))))))))))
(assert (<= 26 (Length var0)))
(check-sat)